n = 6;
ncols = 7;
nrows = 8;
a = [| 2, 5, 1, 1, 5, 5, 4
     | 3, 2, 4, 0, 5, 5, 4
     | 3, 3, 6, 2, 2, 1, 4
     | 1, 0, 1, 5, 0, 3, 0
     | 6, 4, 3, 6, 5, 2, 2
     | 6, 6, 3, 6, 4, 0, 2
     | 0, 1, 0, 3, 4, 0, 6
     | 4, 1, 1, 2, 5, 3, 6
     |];

% Possible solution:
%
%        2---5   1---1   5---5   4
%                                |
%        3   2---4   0---5   5   4
%        |                   |
%        3   3   6---2   2   1   4
%            |           |       |
%        1   0   1   5   0   3   0
%        |       |   |       |
%        6   4   3   6   5   2   2
%            |           |       |
%        6   6   3---6   4   0   2
%        |                   |
%        0   1---0   3---4   0   6
%                                |
%        4---1   1---2   5---3   6
